
Gurobi 10.0.3 (linux64, gurobi_cl) logging started Thu Nov  2 11:33:58 2023

Set parameter Username
Set parameter TimeLimit to value 3600
Set parameter LogFile to value "RCPSP_41.log"
Set parameter Threads to value 32
Academic license - for non-commercial use only - expires 2024-10-30
Using license file /home/jrivera6/gurobi-licenses/v1003/compute-0-35/gurobi.lic

Gurobi Optimizer version 10.0.3 build v10.0.3rc0 (linux64)
Copyright (c) 2023, Gurobi Optimization, LLC

Read MPS format model from file RCPSP_41.mps
Reading time = 0.01 seconds
RCPSP_41: 5329 rows, 2080 columns, 17044 nonzeros

CPU model: Intel(R) Xeon(R) Gold 6130 CPU @ 2.10GHz, instruction set [SSE2|AVX|AVX2|AVX512]
Thread count: 32 physical cores, 32 logical processors, using up to 32 threads

Optimize a model with 5329 rows, 2080 columns and 17044 nonzeros
Model fingerprint: 0x38b1c5b3
Variable types: 32 continuous, 2048 integer (2048 binary)
Coefficient statistics:
  Matrix range     [1e+00, 2e+02]
  Objective range  [1e+00, 1e+00]
  Bounds range     [1e+00, 1e+00]
  RHS range        [1e+00, 2e+02]
Presolve removed 2768 rows and 1029 columns
Presolve time: 0.16s
Presolved: 2561 rows, 1051 columns, 8356 nonzeros
Variable types: 31 continuous, 1020 integer (1020 binary)

Root relaxation: objective 4.200000e+01, 386 iterations, 0.00 seconds (0.00 work units)

    Nodes    |    Current Node    |     Objective Bounds      |     Work
 Expl Unexpl |  Obj  Depth IntInf | Incumbent    BestBd   Gap | It/Node Time

     0     0   42.00000    0   19          -   42.00000      -     -    0s
     0     0   42.00000    0   53          -   42.00000      -     -    0s
     0     0   42.00000    0   67          -   42.00000      -     -    0s
     0     0   42.00000    0   52          -   42.00000      -     -    1s
     0     0   43.00000    0   62          -   43.00000      -     -    1s
     0     0   43.00000    0  107          -   43.00000      -     -    1s
H    0     0                      60.0000000   43.00000  28.3%     -    1s
     0     0   43.00000    0   88   60.00000   43.00000  28.3%     -    1s
     0     0   44.00000    0   96   60.00000   44.00000  26.7%     -    1s
     0     0   44.00000    0   70   60.00000   44.00000  26.7%     -    1s
     0     0   44.00000    0   62   60.00000   44.00000  26.7%     -    2s
     0     0   44.00000    0   93   60.00000   44.00000  26.7%     -    2s
     0     0   44.00000    0   44   60.00000   44.00000  26.7%     -    2s
H    0     0                      58.0000000   44.00000  24.1%     -    2s
     0     0   44.00000    0   72   58.00000   44.00000  24.1%     -    2s
     0     0   44.00000    0   82   58.00000   44.00000  24.1%     -    3s
     0     0   44.00000    0   79   58.00000   44.00000  24.1%     -    3s
     0     0   44.00000    0   63   58.00000   44.00000  24.1%     -    4s
     0     0   44.00000    0   63   58.00000   44.00000  24.1%     -    4s
     0     0   44.00000    0   76   58.00000   44.00000  24.1%     -    4s
     0     0   44.00000    0   12   58.00000   44.00000  24.1%     -    4s
     0     0   44.00000    0   48   58.00000   44.00000  24.1%     -    4s
     0     0   44.00000    0   46   58.00000   44.00000  24.1%     -    5s
     0     0   44.00000    0   30   58.00000   44.00000  24.1%     -    5s
     0     2   44.00000    0   29   58.00000   44.00000  24.1%     -    6s
H   29    32                      57.0000000   47.00000  17.5%  98.3    8s
H   78    45                      57.0000000   49.09091  13.9%  67.3   12s
H   82    45                      55.0000000   50.90000  7.45%  66.4   12s
  1033   651   52.00000   36   13   55.00000   51.00000  7.27%  14.2   15s
H 1260   668                      55.0000000   51.00000  7.27%  12.7   16s
* 1688  1004              47      54.0000000   51.00000  5.56%  11.6   19s
  2027  1016   52.00000   28   11   54.00000   51.00000  5.56%  10.7   20s
* 2934  1141              37      53.0000000   51.00000  3.77%  10.2   20s
  5487   174   52.00000   20   50   53.00000   52.00000  1.89%   9.7   25s

Cutting planes:
  Gomory: 14
  Cover: 81
  Implied bound: 230
  Clique: 11
  MIR: 290
  StrongCG: 3
  Inf proof: 56
  Mod-K: 2
  RLT: 110
  Relax-and-lift: 80

Explored 6588 nodes (72444 simplex iterations) in 30.21 seconds (1.43 work units)
Thread count was 32 (of 32 available processors)

Solution count 8: 53 54 55 ... 60

Optimal solution found (tolerance 1.00e-04)
Best objective 5.300000000000e+01, best bound 5.300000000000e+01, gap 0.0000%

Wrote result file 'RCPSP_41.sol'

